(set-info :smt-lib-version 2.6)
(set-logic QF_UFLRA)
(set-info :source |
MathSat group

|)
(set-info :category "random")
(set-info :status unsat)
(declare-fun x0 () Real)
(declare-fun x1 () Real)
(declare-fun x2 () Real)
(declare-fun x3 () Real)
(declare-fun x4 () Real)
(declare-fun x5 () Real)
(declare-fun x6 () Real)
(declare-fun x7 () Real)
(declare-fun x8 () Real)
(declare-fun x9 () Real)
(declare-fun x10 () Real)
(declare-fun x11 () Real)
(declare-fun x12 () Real)
(declare-fun x13 () Real)
(declare-fun x14 () Real)
(declare-fun x15 () Real)
(declare-fun x16 () Real)
(declare-fun x17 () Real)
(declare-fun x18 () Real)
(declare-fun x19 () Real)
(declare-fun x20 () Real)
(declare-fun x21 () Real)
(declare-fun x22 () Real)
(declare-fun x23 () Real)
(declare-fun x24 () Real)
(declare-fun x25 () Real)
(declare-fun x26 () Real)
(declare-fun x27 () Real)
(declare-fun x28 () Real)
(declare-fun x29 () Real)
(declare-fun f0_1 (Real) Real)
(declare-fun f0_2 (Real Real) Real)
(declare-fun f0_3 (Real Real Real) Real)
(declare-fun f0_4 (Real Real Real Real) Real)
(declare-fun P0 () Bool)
(declare-fun P1 () Bool)
(declare-fun P2 () Bool)
(declare-fun P3 () Bool)
(declare-fun P4 () Bool)
(declare-fun P5 () Bool)
(declare-fun P6 () Bool)
(declare-fun P7 () Bool)
(declare-fun P8 () Bool)
(declare-fun P9 () Bool)
(declare-fun P10 () Bool)
(declare-fun P11 () Bool)
(declare-fun P12 () Bool)
(declare-fun P13 () Bool)
(declare-fun P14 () Bool)
(declare-fun P15 () Bool)
(declare-fun P16 () Bool)
(declare-fun P17 () Bool)
(declare-fun P18 () Bool)
(declare-fun P19 () Bool)
(declare-fun P20 () Bool)
(declare-fun P21 () Bool)
(declare-fun P22 () Bool)
(declare-fun P23 () Bool)
(declare-fun P24 () Bool)
(declare-fun P25 () Bool)
(declare-fun P26 () Bool)
(declare-fun P27 () Bool)
(declare-fun P28 () Bool)
(declare-fun P29 () Bool)
(assert (let ((?v_80 (< (- (+ (* 11 x4) (* 20 x4)) (* 7 x22)) 28)) (?v_66 (<= (- (- (* 35 x4) (* 21 x27)) (* 26 x14)) 24)) (?v_72 (* 9 x26)) (?v_48 (< (- (+ (* 16 x14) (* 20 x2)) (* 19 x9)) 23)) (?v_49 (* 7 x26)) (?v_7 (* 4 x19)) (?v_105 (= (- (+ (* 39 x14) (* 38 x12)) (* 4 x26)) 38)) (?v_149 (<= (- (+ (* 30 x3) (* 25 x18)) (* 41 x13)) 3)) (?v_6 (= (f0_2 x15 x24) x20)) (?v_33 (= (f0_2 x8 x20) (f0_2 x28 x27))) (?v_59 (distinct (f0_2 x1 x6) (f0_2 x1 x7))) (?v_28 (f0_1 x0))) (let ((?v_136 (= (f0_2 x18 x12) ?v_28)) (?v_91 (= (f0_2 x5 x27) (f0_2 x17 x7))) (?v_129 (= (f0_2 x20 x2) (f0_2 x15 x18))) (?v_73 (distinct (f0_2 x12 x9) x0)) (?v_54 (= x16 (f0_1 x27))) (?v_43 (= (f0_2 x26 x23) x10)) (?v_2 (f0_1 x8))) (let ((?v_68 (distinct (f0_1 x19) ?v_2)) (?v_144 (distinct x18 (f0_1 x17))) (?v_130 (= x5 (f0_2 x18 x26))) (?v_128 (distinct (f0_2 x29 x5) x27)) (?v_37 (distinct (f0_2 x27 x0) (f0_2 x0 x5))) (?v_70 (distinct (f0_2 x26 x9) (f0_2 x6 x28))) (?v_46 (distinct x6 ?v_2)) (?v_29 (= (f0_1 x26) x21)) (?v_41 (distinct x17 (f0_2 x17 x19))) (?v_86 (distinct x10 (f0_1 x28))) (?v_11 (= (f0_1 x1) x12)) (?v_89 (distinct (f0_2 x18 x20) (f0_1 x12))) (?v_118 (distinct x0 ?v_28)) (?v_61 (= (f0_2 x1 x15) x23)) (?v_3 (f0_1 x3))) (let ((?v_74 (= ?v_3 x19)) (?v_135 (distinct ?v_3 (f0_2 x19 x28))) (?v_31 (distinct x26 (f0_2 x22 x10))) (?v_108 (= (f0_2 x18 x28) (f0_2 x12 x7))) (?v_123 (distinct x12 x8)) (?v_24 (distinct (f0_2 x26 x29) ?v_3)) (?v_0 (distinct (f0_2 x3 x1) x15)) (?v_22 (not P1)) (?v_102 (not ?v_91)) (?v_55 (not ?v_73)) (?v_14 (not P29)) (?v_79 (not P14)) (?v_62 (not ?v_144)) (?v_83 (not ?v_130)) (?v_15 (not P28)) (?v_137 (not ?v_48)) (?v_5 (not ?v_129))) (let ((?v_32 (not ?v_135)) (?v_151 (not ?v_0)) (?v_16 (not ?v_108)) (?v_142 (not P5)) (?v_50 (not P11)) (?v_20 (not ?v_68)) (?v_112 (not ?v_11)) (?v_27 (not ?v_89)) (?v_8 (not ?v_136)) (?v_25 (not ?v_149)) (?v_38 (not P4)) (?v_134 (not ?v_123)) (?v_53 (not P24)) (?v_10 (not ?v_33)) (?v_77 (not ?v_86)) (?v_141 (not P21)) (?v_35 (not P9)) (?v_57 (not P7)) (?v_30 (not P16)) (?v_76 (not P8)) (?v_133 (not ?v_24)) (?v_116 (not ?v_118)) (?v_58 (not ?v_54)) (?v_75 (not P27)) (?v_63 (not P26)) (?v_42 (not ?v_70)) (?v_81 (not P23)) (?v_56 (not ?v_43)) (?v_51 (not ?v_46)) (?v_107 (not P18)) (?v_125 (not ?v_6)) (?v_67 (not P12)) (?v_98 (not P2)) (?v_90 (not ?v_66)) (?v_120 (not P6)) (?v_153 (not P15)) (?v_84 (not ?v_29)) (?v_85 (not ?v_41)) (?v_93 (not ?v_37)) (?v_132 (not ?v_61)) (?v_99 (not ?v_80)) (?v_113 (not P25)) (?v_152 (not P20)) (?v_92 (not ?v_31)) (?v_103 (not ?v_74)) (?v_154 (not P3)) (?v_124 (not ?v_128)) (?v_97 (not P19)) (?v_109 (not P13)) (?v_121 (not P22)) (?v_114 (not P10)) (?v_126 (not ?v_59)) (?v_139 (not P17))) (let ((?v_147 (or (not P0) ?v_97)) (?v_155 (not ?v_105)) (?v_12 (= (- (* 8 x25) (* 30 x9)) 9)) (?v_60 (<= (+ (* 34 x15) (* 27 x14) (* 29 x24)) 5))) (let ((?v_96 (not ?v_60)) (?v_64 (< (+ (* 19 x11) (* 7 x13) ?v_72) 16))) (let ((?v_150 (not ?v_64)) (?v_87 (< (+ (* 39 x6) (* 28 x20) (* 11 x16)) 6))) (let ((?v_95 (not ?v_87)) (?v_115 (not ?v_12)) (?v_138 (<= (+ (* (- 14) x20) (* 10 x9) ?v_7) (- 39))) (?v_1 (< (- (- (* (- 9) x25) (* 33 x4)) (* 11 x26)) 14)) (?v_4 (< (- (- (* (- 28) x1) (* 34 x29)) (* 24 x10)) (- 41))) (?v_34 (< (- (+ (* (- 15) x10) (* 8 x2)) ?v_49) 11))) (let ((?v_65 (not ?v_34)) (?v_23 (<= (+ (- (* (- 2) x18) (* 26 x29)) (* 38 x7)) (- 6))) (?v_52 (not ?v_1)) (?v_19 (< (+ (- (* 15 x1) (* 22 x13)) (* 4 x22)) (- 11))) (?v_26 (< (- (- (* 36 x13) (* 19 x20)) (* 33 x25)) (- 33))) (?v_13 (< (+ (* (- 27) x15) (* 41 x27) (* 14 x19)) 7)) (?v_18 (not ?v_4)) (?v_9 (< (+ (- 0 (* 26 x24)) (* 17 x5)) (- 20)))) (let ((?v_21 (not ?v_9)) (?v_17 (< (- (- (* (- 40) x14) (* 18 x17)) (* 37 x13)) (- 40)))) (let ((?v_45 (not ?v_17)) (?v_47 (<= (- (- (* 10 x3) 0) ?v_7) (- 12)))) (let ((?v_131 (not ?v_47)) (?v_39 (< (+ (* (- 17) x12) (* 7 x6) (* 5 x18)) 34)) (?v_104 (distinct (+ (- (* 38 x24) (* 13 x24)) (* 15 x26)) (- 10)))) (let ((?v_101 (not ?v_104)) (?v_156 (or ?v_13 ?v_14)) (?v_36 (<= (- (- (* (- 40) x20) (* 35 x19)) (* 8 x20)) 2))) (let ((?v_94 (not ?v_36)) (?v_40 (not ?v_19)) (?v_44 (not ?v_26)) (?v_143 (not ?v_13)) (?v_106 (<= (+ (- (* (- 1) x6) (* 23 x1)) (* 5 x11)) (- 3)))) (let ((?v_78 (not ?v_106)) (?v_122 (< (- (- x8 (* 3 x2)) (* 24 x17)) (- 23)))) (let ((?v_69 (not ?v_122)) (?v_111 (< (+ (* 2 x7) ?v_49 (* 4 x5)) (- 37)))) (let ((?v_117 (not ?v_111)) (?v_140 (= (- (+ (* (- 27) x1) (* 33 x23)) (* 15 x13)) 15))) (let ((?v_100 (not ?v_140)) (?v_71 (< (+ (* 40 x18) (* 10 x21) (* 5 x10)) (- 17))) (?v_82 (<= (+ (- (* (- 12) x29) (* 4 x18)) (* 14 x14)) 42)) (?v_88 (<= (- ?v_72 (* 2 x1)) (- 11)))) (let ((?v_110 (not ?v_88)) (?v_146 (not ?v_23)) (?v_127 (not ?v_71)) (?v_119 (not ?v_82)) (?v_145 (not ?v_39)) (?v_148 (not ?v_138)) (?v_157 (or ?v_35 ?v_71))) (and (and (and (and (and (and (and (and (and (and (and (and (and (and (and (and (and (and (and (and (and (and (and (and (and (and (and (and (and (and (and (and (and (and (and (and (and (and (and (and (and (and (and (and (and (and (and (and (and (and (and (and (and (and (and (and (and (and (and (and (and (and (and (and (and (and (and (and (and (and (and (and (and (and (and (and (and (and (and (and (and (and (and (and (and (and (and (and (and (and (and (and (and (and (and (and (and (and (and (and (and (and (and (and (and (and (and (and (and (and (and (and (and (and (and (and (and (and (and (and (and (and (and (and (and (and (and (and (and (and (and (and (and (and (and (and (and (and (and (and (and (and (and (and (and (and (and (and (and (and (and (and (and (and (and (and (and (and (and (and (and (and (and (and (and (and (and (and (and (and (and (and (and (and (and (and (and (and (and (and (and (and (and (and (and (and (and (and (and (and (and (and (and (and (and (and (and (and (and (and (and (and (and (and (and (and (and (and (and (and (and (and (and (and (and (and (and (and (and (and (and (and (and (and (and (and (and (and (and (and (and (and (and (and (and (and (and (and (and (and (and (and (and (and (and (and (and (and (and (and (and (and (and (and (and (and (and (and (and (and (and (and (and (and (and (and (and (and (and (and (and (and (and (and (and (and (and (and (and (and (and (and (and (and (and (and (and (and (and (and (and (and (and (and (and (and (and (and (and (and (and (and (and (and (and (and (and (and (and (and (and (and (and (and (and (and (and (and (and (and (and (and (and (and (and (and (and (and (and (and (and (and (and (and (and (and (and (and (and (and (and (and (and (and (and (and (and (and (and (and (and (and (and (and (and (and (and (and (and (and (and (and (and (and (and (and (and (and (and (and (and (and (and (and (and (and (and (and (and (and (and (and (and (and (and (and (and (and (and (and (and (and (and (and (and (and (and (and (and (and (and (and (and (and (and (and (and (and (and (and (and (and (and (and (and (and (and (and (and (and (and (and (and (and (and (and (and (and (and (and (and (and (and (and (and (and (and (and (and (and (and (and (and (and (and (and (and (and (and (or (or ?v_22 P6) ?v_138) (or (or ?v_102 ?v_55) ?v_6)) (or (or ?v_29 ?v_14) ?v_1)) (or (or ?v_79 P9) ?v_62)) (or (or P1 ?v_46) ?v_83)) (or (or ?v_4 ?v_15) ?v_65)) (or (or ?v_23 P9) ?v_137)) (or (or ?v_5 P28) ?v_32)) (or (or ?v_151 ?v_16) P12)) (or (or ?v_0 ?v_52) P4)) (or (or P26 P4) ?v_19)) (or (or ?v_142 ?v_26) ?v_50)) (or (or ?v_20 ?v_112) ?v_24)) (or (or P29 ?v_13) ?v_27)) (or (or ?v_18 ?v_5) ?v_8)) (or (or ?v_21 ?v_4) ?v_25)) (or (or P21 P28) P24)) (or (or ?v_6 ?v_31) P24)) (or (or ?v_12 ?v_38) ?v_45)) (or (or ?v_134 ?v_96) ?v_0)) (or (or P26 ?v_74) ?v_131)) (or (or ?v_8 ?v_53) ?v_10)) (or (or ?v_9 ?v_39) ?v_10)) (or (or ?v_11 ?v_12) ?v_101)) (or ?v_156 ?v_64)) (or (or ?v_77 ?v_11) ?v_15)) (or (or ?v_16 ?v_17) ?v_141)) (or (or P11 P13) P7)) (or (or ?v_94 ?v_35) P11)) (or (or ?v_18 ?v_41) ?v_57)) (or (or P29 ?v_40) ?v_43)) (or (or ?v_30 ?v_11) P10)) (or (or ?v_76 ?v_20) ?v_6)) (or (or ?v_21 ?v_22) ?v_23)) (or (or ?v_133 ?v_13) ?v_17)) (or (or ?v_25 ?v_44) ?v_27)) (or (or ?v_143 ?v_116) ?v_29)) (or (or ?v_58 ?v_37) ?v_30)) (or (or ?v_75 ?v_63) ?v_31)) (or (or ?v_32 ?v_78) P5)) (or (or ?v_33 P4) ?v_5)) (or (or P13 ?v_42) ?v_34)) (or (or P11 ?v_21) ?v_8)) (or (or ?v_33 ?v_20) ?v_35)) (or (or P2 ?v_36) ?v_37)) (or (or ?v_38 ?v_39) ?v_81)) (or (or ?v_13 ?v_40) ?v_0)) (or (or ?v_41 ?v_42) ?v_56)) (or (or P9 ?v_44) P26)) (or (or P25 ?v_13) ?v_45)) (or (or ?v_51 ?v_59) ?v_40)) (or (or ?v_47 ?v_69) ?v_32)) (or (or ?v_41 P29) ?v_48)) (or (or ?v_117 ?v_50) ?v_42)) (or (or ?v_107 ?v_100) ?v_51)) (or (or ?v_52 ?v_125) ?v_53)) (or (or ?v_71 ?v_24) ?v_54)) (or (or ?v_80 ?v_82) ?v_15)) (or (or ?v_55 P18) ?v_56)) (or (or ?v_41 ?v_66) ?v_61)) (or (or P13 ?v_57) ?v_58)) (or (or ?v_59 ?v_67) ?v_22)) (or (or ?v_60 ?v_61) ?v_62)) (or (or ?v_44 ?v_32) ?v_63)) (or (or P1 P14) ?v_64)) (or (or ?v_65 ?v_1) ?v_98)) (or (or P29 ?v_90) ?v_120)) (or (or ?v_67 ?v_68) ?v_17)) (or (or ?v_53 ?v_10) ?v_69)) (or (or ?v_46 P29) P24)) (or (or ?v_70 ?v_24) ?v_71)) (or (or ?v_110 ?v_73) ?v_69)) (or (or ?v_74 ?v_17) ?v_75)) (or (or ?v_153 ?v_60) ?v_76)) (or (or ?v_32 ?v_84) ?v_77)) (or (or ?v_48 ?v_18) ?v_85)) (or (or ?v_78 ?v_93) ?v_79)) (or (or ?v_132 ?v_99) ?v_150)) (or (or ?v_15 ?v_81) ?v_113)) (or (or ?v_19 ?v_1) ?v_82)) (or (or P25 P2) ?v_76)) (or (or ?v_36 ?v_83) ?v_55)) (or (or ?v_9 P18) ?v_146)) (or (or ?v_57 ?v_84) ?v_85)) (or (or ?v_152 ?v_27) ?v_83)) (or (or ?v_87 ?v_92) P8)) (or (or ?v_40 ?v_127) ?v_27)) (or (or ?v_44 ?v_81) P16)) (or (or ?v_63 ?v_60) P3)) (or (or ?v_86 ?v_103) ?v_63)) (or (or ?v_4 ?v_95) ?v_88)) (or (or ?v_25 ?v_22) ?v_0)) (or (or ?v_89 ?v_154) ?v_90)) (or (or ?v_91 ?v_1) ?v_124)) (or (or ?v_42 ?v_115) ?v_92)) (or (or ?v_50 ?v_8) ?v_93)) (or (or ?v_94 ?v_19) ?v_95)) (or (or ?v_97 ?v_96) ?v_10)) (or (or ?v_45 P20) P15)) (or (or ?v_4 ?v_97) ?v_51)) (or (or ?v_37 ?v_109) ?v_6)) (or (or ?v_0 ?v_46) ?v_17)) (or (or ?v_98 ?v_61) ?v_99)) (or (or P5 ?v_71) ?v_21)) (or (or ?v_18 ?v_1) ?v_100)) (or (or P3 ?v_56) ?v_119)) (or (or ?v_36 P7) ?v_26)) (or (or ?v_101 P14) ?v_9)) (or (or P7 ?v_68) ?v_96)) (or (or ?v_105 ?v_102) ?v_93)) (or (or P5 ?v_103) ?v_59)) (or (or P21 ?v_53) P13)) (or (or ?v_104 ?v_105) ?v_33)) (or (or ?v_37 ?v_102) ?v_13)) (or (or ?v_1 ?v_6) ?v_88)) (or (or ?v_104 ?v_75) ?v_106)) (or (or P20 P14) ?v_107)) (or (or ?v_61 ?v_106) ?v_18)) (or (or ?v_87 P2) ?v_50)) (or (or ?v_108 ?v_63) P7)) (or (or P2 P20) ?v_24)) (or (or ?v_107 ?v_107) ?v_73)) (or (or ?v_25 ?v_73) P20)) (or (or P10 ?v_121) ?v_48)) (or (or ?v_109 ?v_93) P6)) (or (or ?v_1 ?v_114) ?v_57)) (or (or P9 ?v_24) ?v_26)) (or (or ?v_34 ?v_55) ?v_79)) (or (or ?v_110 P10) ?v_41)) (or (or ?v_15 ?v_43) ?v_126)) (or (or P24 ?v_103) ?v_80)) (or (or ?v_31 ?v_111) P19)) (or (or ?v_34 P10) ?v_112)) (or (or ?v_50 ?v_113) P17)) (or (or ?v_94 ?v_74) ?v_114)) (or (or ?v_19 P19) P11)) (or (or ?v_40 ?v_115) ?v_26)) (or (or ?v_116 ?v_92) ?v_88)) (or (or P12 ?v_79) P3)) (or (or ?v_117 ?v_118) P28)) (or (or ?v_75 ?v_119) ?v_38)) (or (or P9 ?v_35) ?v_11)) (or (or ?v_91 P28) ?v_120)) (or (or P25 ?v_54) ?v_121)) (or (or ?v_85 ?v_122) ?v_23)) (or (or ?v_84 ?v_108) ?v_52)) (or (or P26 ?v_79) ?v_74)) (or (or ?v_95 ?v_65) ?v_112)) (or (or ?v_139 P20) ?v_5)) (or (or ?v_86 ?v_31) ?v_119)) (or (or ?v_102 P6) P12)) (or (or ?v_57 ?v_32) ?v_56)) (or (or ?v_114 ?v_84) ?v_57)) (or (or P29 P2) P18)) (or (or ?v_123 ?v_92) ?v_51)) (or (or ?v_18 ?v_46) ?v_78)) (or (or ?v_124 ?v_45) ?v_85)) (or (or P23 ?v_125) ?v_27)) (or (or ?v_80 ?v_31) P14)) (or (or ?v_48 ?v_5) ?v_122)) (or (or P18 ?v_113) ?v_65)) (or (or P25 ?v_78) P7)) (or (or ?v_46 ?v_100) ?v_55)) (or (or P27 P26) ?v_145)) (or (or ?v_89 ?v_120) ?v_31)) (or (or P14 ?v_57) ?v_47)) (or (or ?v_126 P15) P19)) (or (or ?v_19 ?v_127) ?v_69)) (or (or ?v_59 P1) P14)) (or (or ?v_80 ?v_41) ?v_105)) (or (or P28 ?v_84) ?v_20)) (or (or ?v_88 ?v_57) ?v_58)) (or (or ?v_114 ?v_64) ?v_24)) (or (or ?v_88 ?v_37) ?v_76)) (or (or ?v_74 ?v_121) ?v_45)) (or (or ?v_116 ?v_34) ?v_16)) (or (or ?v_68 ?v_37) ?v_51)) (or (or ?v_128 ?v_52) ?v_70)) (or (or ?v_54 P26) P13)) (or (or ?v_129 ?v_52) P1)) (or (or ?v_122 ?v_23) ?v_78)) (or (or ?v_53 ?v_125) ?v_86)) (or (or ?v_75 ?v_11) ?v_35)) (or (or ?v_45 ?v_100) ?v_81)) (or (or ?v_31 ?v_54) ?v_82)) (or (or ?v_113 ?v_130) ?v_98)) (or (or ?v_48 ?v_96) ?v_131)) (or (or ?v_132 ?v_32) ?v_57)) (or (or ?v_130 ?v_133) ?v_127)) (or (or ?v_91 ?v_101) ?v_115)) (or (or ?v_134 ?v_101) P26)) (or (or ?v_120 ?v_100) ?v_5)) (or (or ?v_129 ?v_98) ?v_60)) (or (or ?v_33 ?v_25) ?v_67)) (or (or ?v_91 ?v_9) P29)) (or (or ?v_61 ?v_135) P5)) (or (or ?v_48 ?v_112) ?v_136)) (or (or ?v_10 P11) ?v_42)) (or (or ?v_41 ?v_137) ?v_22)) (or (or ?v_95 ?v_88) ?v_27)) (or (or P8 ?v_35) ?v_125)) (or (or ?v_106 ?v_27) ?v_83)) (or (or ?v_93 P17) ?v_69)) (or (or P15 ?v_34) P8)) (or (or P26 ?v_107) ?v_116)) (or (or ?v_94 ?v_106) ?v_105)) (or (or ?v_40 P1) ?v_75)) (or (or ?v_112 ?v_16) P18)) (or (or P28 ?v_45) ?v_108)) (or (or P29 ?v_104) ?v_16)) (or (or ?v_71 ?v_37) ?v_103)) (or (or ?v_114 ?v_29) ?v_117)) (or (or ?v_77 ?v_138) ?v_71)) (or (or ?v_41 ?v_71) ?v_114)) (or (or ?v_6 ?v_125) ?v_62)) (or (or ?v_15 ?v_131) ?v_118)) (or (or P1 ?v_68) ?v_16)) (or (or ?v_43 ?v_30) ?v_21)) (or (or ?v_74 ?v_77) P28)) (or (or P12 ?v_29) ?v_23)) (or (or ?v_6 P23) ?v_52)) (or (or ?v_139 ?v_94) ?v_148)) (or (or P23 P14) P22)) (or (or ?v_126 ?v_140) ?v_75)) (or (or ?v_57 ?v_114) ?v_125)) (or (or ?v_128 ?v_106) ?v_6)) (or (or ?v_115 P8) ?v_64)) (or (or ?v_121 ?v_11) ?v_110)) (or (or P29 ?v_116) ?v_71)) (or (or ?v_140 ?v_127) P26)) (or (or ?v_29 ?v_4) ?v_121)) (or (or ?v_36 ?v_141) P23)) (or (or ?v_78 ?v_41) ?v_99)) (or (or ?v_39 ?v_36) ?v_89)) (or (or ?v_86 ?v_110) ?v_80)) (or (or ?v_118 P29) ?v_78)) (or (or ?v_110 ?v_132) ?v_142)) (or (or ?v_124 ?v_36) ?v_27)) (or (or ?v_97 ?v_103) ?v_112)) (or (or ?v_10 P2) ?v_63)) (or (or ?v_61 ?v_30) ?v_143)) (or (or ?v_141 ?v_32) ?v_4)) (or (or ?v_143 ?v_20) ?v_133)) (or (or P10 P23) ?v_140)) (or (or ?v_141 P17) ?v_127)) (or (or ?v_88 ?v_77) ?v_140)) (or ?v_147 ?v_127)) (or (or ?v_9 ?v_144) ?v_6)) (or (or ?v_84 ?v_14) ?v_41)) (or (or P20 ?v_36) ?v_93)) (or ?v_157 ?v_26)) (or (or P6 ?v_10) ?v_140)) (or (or ?v_52 ?v_89) ?v_18)) (or (or P12 ?v_129) ?v_99)) (or (or P4 ?v_15) ?v_16)) (or (or ?v_95 ?v_5) ?v_41)) (or (or ?v_124 P28) P27)) (or (or ?v_52 ?v_100) P14)) (or (or ?v_133 ?v_11) ?v_102)) (or (or ?v_130 P10) ?v_82)) (or (or ?v_76 ?v_110) ?v_103)) (or (or ?v_83 ?v_67) ?v_59)) (or (or ?v_91 ?v_52) ?v_8)) (or (or P6 ?v_145) ?v_133)) (or (or ?v_23 P17) ?v_143)) (or (or ?v_36 ?v_124) ?v_66)) (or (or ?v_110 ?v_77) ?v_24)) (or (or P21 ?v_45) ?v_22)) (or (or P13 ?v_18) ?v_79)) (or (or P5 ?v_64) ?v_131)) (or (or ?v_120 P29) ?v_139)) (or (or ?v_12 ?v_146) ?v_93)) (or (or ?v_92 ?v_64) ?v_23)) (or ?v_147 ?v_55)) (or (or ?v_16 ?v_47) ?v_113)) (or (or ?v_9 ?v_29) P10)) (or (or P25 ?v_41) P19)) (or (or ?v_125 P11) ?v_148)) (or (or P2 P5) ?v_50)) (or (or ?v_95 P27) ?v_107)) (or (or ?v_144 ?v_142) ?v_155)) (or (or ?v_10 P27) P11)) (or (or ?v_35 ?v_50) ?v_57)) (or (or ?v_126 ?v_79) ?v_36)) (or (or ?v_68 P26) ?v_70)) (or (or ?v_143 ?v_105) ?v_122)) (or (or ?v_6 ?v_116) ?v_60)) (or (or P5 ?v_60) ?v_133)) (or (or ?v_112 ?v_82) ?v_46)) (or (or ?v_41 P11) ?v_114)) (or (or ?v_122 ?v_8) ?v_91)) (or (or P13 ?v_140) ?v_85)) (or (or P12 ?v_36) ?v_35)) (or (or ?v_15 ?v_30) ?v_8)) (or (or ?v_115 P3) ?v_46)) (or (or P23 ?v_35) ?v_148)) (or (or P26 ?v_115) ?v_94)) (or (or ?v_94 ?v_90) ?v_111)) (or (or ?v_149 P11) ?v_126)) (or (or ?v_11 ?v_138) ?v_136)) (or (or ?v_64 ?v_128) ?v_16)) (or (or ?v_137 ?v_66) ?v_8)) (or (or ?v_146 ?v_78) ?v_67)) (or (or ?v_92 ?v_86) ?v_114)) (or (or ?v_94 ?v_13) ?v_132)) (or (or ?v_29 ?v_75) ?v_10)) (or (or ?v_150 ?v_14) ?v_5)) (or (or ?v_34 ?v_101) ?v_125)) (or (or ?v_145 ?v_70) ?v_53)) (or (or P0 ?v_125) P7)) (or (or ?v_29 ?v_96) P2)) (or (or ?v_54 ?v_22) ?v_85)) (or (or ?v_24 ?v_36) ?v_12)) (or (or ?v_8 ?v_78) ?v_21)) (or (or ?v_116 P16) ?v_135)) (or (or ?v_141 ?v_54) ?v_65)) (or (or ?v_17 ?v_150) P5)) (or (or ?v_120 ?v_80) ?v_92)) (or (or ?v_66 ?v_151) ?v_150)) (or (or P29 ?v_127) ?v_53)) (or (or ?v_80 ?v_140) ?v_97)) (or (or ?v_149 ?v_92) ?v_144)) (or (or ?v_83 ?v_11) ?v_93)) (or (or ?v_152 ?v_46) ?v_111)) (or (or ?v_121 P18) ?v_31)) (or (or ?v_18 P19) P22)) (or (or ?v_118 ?v_66) P27)) (or (or P19 ?v_10) ?v_29)) (or (or ?v_5 ?v_68) ?v_82)) (or (or ?v_153 ?v_61) ?v_56)) (or (or ?v_121 ?v_33) ?v_11)) (or (or ?v_130 P8) P6)) (or (or ?v_140 ?v_133) ?v_22)) (or (or ?v_105 ?v_32) ?v_134)) (or (or P20 ?v_108) ?v_137)) (or (or ?v_37 ?v_39) ?v_105)) (or (or ?v_82 ?v_92) ?v_140)) (or (or ?v_117 ?v_9) ?v_129)) (or (or ?v_140 ?v_10) ?v_31)) (or (or ?v_92 ?v_99) ?v_126)) (or (or P4 ?v_121) ?v_32)) (or (or ?v_140 ?v_33) P13)) (or (or ?v_29 ?v_112) P12)) (or (or ?v_27 ?v_19) ?v_51)) (or (or ?v_44 ?v_135) ?v_36)) (or (or ?v_154 ?v_126) ?v_99)) (or (or ?v_106 ?v_111) ?v_87)) (or (or ?v_46 P16) ?v_154)) (or (or ?v_99 ?v_80) P20)) (or (or ?v_122 ?v_95) ?v_97)) (or (or ?v_137 ?v_46) P21)) (or (or ?v_149 ?v_98) P12)) (or (or ?v_70 ?v_143) ?v_52)) (or (or P26 ?v_1) ?v_54)) (or (or P4 ?v_57) ?v_53)) (or (or ?v_54 ?v_123) ?v_101)) (or (or ?v_127 ?v_71) ?v_90)) (or (or ?v_154 ?v_93) ?v_19)) (or (or ?v_113 P3) ?v_81)) (or (or ?v_93 ?v_118) ?v_113)) (or (or ?v_81 P9) ?v_118)) (or (or P24 ?v_58) ?v_27)) (or (or ?v_80 ?v_130) ?v_100)) (or (or ?v_25 ?v_126) ?v_78)) (or (or ?v_29 ?v_89) ?v_98)) (or (or P12 ?v_132) ?v_50)) (or (or ?v_124 ?v_97) ?v_23)) (or (or ?v_114 ?v_126) P18)) (or (or ?v_112 ?v_62) ?v_8)) (or (or ?v_78 ?v_64) ?v_102)) (or (or ?v_71 ?v_60) P12)) (or (or ?v_120 ?v_141) ?v_9)) (or (or ?v_81 ?v_92) ?v_9)) (or (or ?v_20 ?v_61) ?v_19)) (or (or ?v_26 P27) P1)) (or (or ?v_54 ?v_98) ?v_38)) (or (or P4 ?v_146) P28)) (or (or ?v_154 ?v_86) ?v_6)) (or (or ?v_60 ?v_20) ?v_48)) (or (or P2 ?v_110) P21)) (or (or P6 ?v_149) ?v_113)) (or (or ?v_9 ?v_90) ?v_84)) (or (or ?v_91 ?v_115) ?v_71)) (or (or P19 ?v_86) ?v_80)) (or (or P24 ?v_87) ?v_40)) (or (or ?v_23 ?v_69) P27)) (or (or ?v_118 ?v_32) ?v_105)) (or (or ?v_155 ?v_150) ?v_27)) (or (or ?v_55 P8) ?v_92)) (or (or ?v_67 ?v_150) P1)) (or (or P15 ?v_114) ?v_119)) (or (or P1 ?v_126) ?v_90)) (or (or ?v_70 ?v_92) ?v_30)) (or (or ?v_47 ?v_90) ?v_116)) (or (or ?v_50 ?v_32) P5)) (or (or ?v_114 ?v_134) ?v_133)) (or (or ?v_15 ?v_144) ?v_86)) (or (or ?v_67 ?v_48) ?v_123)) (or (or ?v_76 ?v_155) P29)) (or (or ?v_87 ?v_56) ?v_82)) (or (or ?v_36 ?v_102) ?v_113)) (or (or P27 ?v_154) P25)) (or (or ?v_4 ?v_145) P28)) (or (or ?v_154 ?v_36) ?v_64)) (or (or ?v_71 P6) ?v_39)) (or (or ?v_15 ?v_128) ?v_151)) (or (or ?v_80 ?v_16) ?v_116)) (or (or ?v_140 ?v_102) ?v_143)) (or (or ?v_128 ?v_121) ?v_108)) (or (or ?v_89 P25) ?v_75)) (or (or ?v_57 ?v_125) ?v_36)) (or (or P13 ?v_69) ?v_131)) (or (or ?v_59 ?v_4) P14)) (or (or ?v_70 ?v_42) ?v_140)) (or (or ?v_92 P5) ?v_61)) (or (or ?v_110 ?v_97) ?v_48)) (or (or ?v_18 ?v_21) ?v_130)) (or (or ?v_116 ?v_47) ?v_129)) (or (or ?v_144 ?v_15) ?v_98)) (or (or ?v_37 ?v_121) P6)) (or (or ?v_46 ?v_18) P2)) (or (or ?v_74 ?v_20) ?v_54)) (or (or ?v_110 ?v_25) ?v_19)) (or (or P11 P4) ?v_113)) (or (or ?v_62 ?v_141) ?v_105)) (or (or ?v_119 ?v_65) ?v_46)) (or (or P7 ?v_93) ?v_155)) (or (or ?v_133 ?v_152) ?v_94)) (or (or ?v_34 ?v_74) ?v_15)) (or ?v_156 P15)) (or (or ?v_152 ?v_123) ?v_56)) (or (or ?v_136 P11) ?v_114)) (or (or ?v_70 ?v_6) ?v_35)) (or (or ?v_8 ?v_107) ?v_139)) (or (or ?v_68 P19) ?v_129)) (or (or ?v_70 ?v_121) ?v_154)) (or (or ?v_133 ?v_41) ?v_144)) (or ?v_157 ?v_19)) (or (or P21 ?v_60) ?v_46)) (or (or ?v_68 P3) ?v_94)) (or (or ?v_77 ?v_121) ?v_48)) (or (or ?v_128 ?v_116) ?v_87)) (or (or ?v_24 ?v_30) ?v_20)) (or (or P26 ?v_95) P12)) (or (or ?v_51 P24) P17)) (or (or ?v_40 ?v_38) ?v_124)) (or (or ?v_144 ?v_126) P24)) (or (or P9 P25) ?v_37)) (or (or ?v_46 ?v_103) ?v_150)) (or (or ?v_52 ?v_30) ?v_85)))))))))))))))))))))))
(check-sat)
(exit)
